Version identifier: 20.1.0.0 | 2020-11-10 | 9bedb6d68
CPXPARAM_Threads                                 1
CPXPARAM_TimeLimit                               7200
CPXPARAM_MIP_Tolerances_MIPGap                   0
Generic callback                                 0x60
1 of 1 MIP starts provided solutions.
MIP start 'm1' defined initial solution with objective 1357.4713.
Tried aggregator 1 time.
Reduced MIP has 400501 rows, 400801 columns, and 1200800 nonzeros.
Reduced MIP has 800 binaries, 0 generals, 0 SOSs, and 0 indicators.
Presolve time = 0.40 sec. (379.65 ticks)
Probing time = 0.06 sec. (50.06 ticks)
Tried aggregator 1 time.
Reduced MIP has 400501 rows, 400801 columns, and 1200800 nonzeros.
Reduced MIP has 800 binaries, 0 generals, 0 SOSs, and 0 indicators.
Presolve time = 0.39 sec. (373.16 ticks)
Probing time = 0.05 sec. (50.06 ticks)
MIP emphasis: balance optimality and feasibility.
MIP search method: dynamic search.
Parallel mode: none, using 1 thread.
Root relaxation solution time = 0.14 sec. (154.29 ticks)

        Nodes                                         Cuts/
   Node  Left     Objective  IInf  Best Integer    Best Bound    ItCnt     Gap

*     0+    0                         1357.4713     2716.0000           100.08%
      0     0     1422.3328    18     1357.4713     2716.0000        0  100.08%
      0     0     1358.1126    20     1357.4713      Fract: 1        6    0.05%
      0     0     1358.1062    22     1357.4713      Fract: 1       61    0.05%
*     0+    0                         1357.9739     1358.1062             0.01%
      0     2     1358.0841    22     1357.9739     1358.0837       61    0.01%
Elapsed time = 34.29 sec. (23693.07 ticks, tree = 0.01 MB, solutions = 2)
*     2     2      integral     0     1357.9838     1358.0837      199    0.01%
      3     3     1358.0545    22     1357.9838     1358.0837      250    0.01%
      5     3        cutoff           1357.9838     1358.0837      343    0.01%
      7     3     1358.0811    20     1357.9838     1358.0809      373    0.01%
      8     4     1358.0521    16     1357.9838     1358.0809      493    0.01%
     10     2        cutoff           1357.9838     1358.0809      662    0.01%
*    11     1      integral     0     1358.0000     1358.0809      695    0.01%
     11     1     1358.0000     0     1358.0000     1358.0264      695    0.00%

Gomory fractional cuts applied:  1
User cuts applied:  2

Root node processing (before b&c):
  Real time             =   34.24 sec. (23651.84 ticks)
Sequential b&c:
  Real time             =   10.02 sec. (3080.92 ticks)
                          ------------
Total (root+branch&cut) =   44.27 sec. (26732.76 ticks)
@Parameters: 
is_S_cut                                true
is_add_all_yinF                         true
is_start_value                          true
is_usercut                              true
is_visualization                        false
uc_only_rootnode                        false

data                                    Qi
fn                                      data/Qi/instance_500_800.csv
mode                                    ZLP
solver                                  cplex

p                                       50
r                                       50

EPS                                     1.0e-06
EPS_vio                                 1.0e-04
beta                                    0.10
gap                                     0.00
nodelimit                               Inf
timelimit                               7200.00


@PrintInfos
ItCnt: 705
Current gap: 0.00 %
Termination Status: OPTIMAL
Primal Status: FEASIBLE_POINT
Solve Time: 44.27 sec
Objective Value: 1358.000000
Number of Nodes:     13

CutInfo: [phase] num / time (sec) 
ZLP             [phase1]     0 / 0.00 [rLC]     4 / 5.30 [rUC]     5 / 4.10 [sLC]     0 / 1.05 [sUC]     0 / 5.60 
OldSubmodular   [phase1]     0 / 0.00 [rLC]     0 / 0.00 [rUC]     0 / 0.00 [sLC]     0 / 0.00 [sUC]     0 / 0.00 
NewSubmodular   [phase1]     0 / 0.00 [rLC]     0 / 0.00 [rUC]     0 / 0.00 [sLC]     0 / 0.00 [sUC]     0 / 0.00 
PMP             [phase1]     0 / 0.00 [rLC]     6 / 1.76 [rUC]     5 / 1.34 [sLC]     2 / 0.59 [sUC]    10 / 2.76 
Separation Round: [phase1] 0  [rLC] 6  [rUC] 5  [sLC] 2  [sUC] 10
Root Best Bound 1358.083748
Root Best Integer: 1357.983800
Best Bound: 1358.000000
Best Integer: 1358.000000

